verification/formal/utils/csa/csa_formal_bmc/model/design_smt2.smt2
; SMT-LIBv2 description generated by Yosys 0.62+9 (git sha1 0640a5904-dirty, aarch64-apple-darwin23.5-clang++ 18.1.8 -fPIC -O3)
; yosys-smt2-module csa
(declare-sort |csa_s| 0)
(declare-fun |csa_is| (|csa_s|) Bool)
(declare-fun |csa#0| (|csa_s|) (_ BitVec 32)) ; \a
; yosys-smt2-input a 32
; yosys-smt2-wire a 32
; yosys-smt2-witness {"offset": 0, "path": ["\\a"], "smtname": "a", "smtoffset": 0, "type": "input", "width": 32}
(define-fun |csa_n a| ((state |csa_s|)) (_ BitVec 32) (|csa#0| state))
(declare-fun |csa#1| (|csa_s|) (_ BitVec 32)) ; \b
; yosys-smt2-input b 32
; yosys-smt2-wire b 32
; yosys-smt2-witness {"offset": 0, "path": ["\\b"], "smtname": "b", "smtoffset": 0, "type": "input", "width": 32}
(define-fun |csa_n b| ((state |csa_s|)) (_ BitVec 32) (|csa#1| state))
(declare-fun |csa#2| (|csa_s|) (_ BitVec 32)) ; \c
; yosys-smt2-input c 32
; yosys-smt2-wire c 32
; yosys-smt2-witness {"offset": 0, "path": ["\\c"], "smtname": "c", "smtoffset": 0, "type": "input", "width": 32}
(define-fun |csa_n c| ((state |csa_s|)) (_ BitVec 32) (|csa#2| state))
(define-fun |csa#3| ((state |csa_s|)) (_ BitVec 32) (bvand (|csa#0| state) (|csa#1| state))) ; $and$utils.sv:61$10_Y
(define-fun |csa#4| ((state |csa_s|)) (_ BitVec 32) (bvand (|csa#0| state) (|csa#2| state))) ; $and$utils.sv:61$11_Y
(define-fun |csa#5| ((state |csa_s|)) (_ BitVec 32) (bvor (|csa#3| state) (|csa#4| state))) ; $or$utils.sv:61$12_Y
(define-fun |csa#6| ((state |csa_s|)) (_ BitVec 32) (bvand (|csa#1| state) (|csa#2| state))) ; $and$utils.sv:61$13_Y
(define-fun |csa#7| ((state |csa_s|)) (_ BitVec 32) (bvor (|csa#5| state) (|csa#6| state))) ; \carry
; yosys-smt2-output carry 32
; yosys-smt2-wire carry 32
(define-fun |csa_n carry| ((state |csa_s|)) (_ BitVec 32) (|csa#7| state))
(define-fun |csa#8| ((state |csa_s|)) (_ BitVec 32) (bvxor (|csa#0| state) (|csa#1| state))) ; $xor$utils.sv:60$8_Y
(define-fun |csa#9| ((state |csa_s|)) (_ BitVec 32) (bvxor (|csa#8| state) (|csa#2| state))) ; \sum
; yosys-smt2-output sum 32
; yosys-smt2-wire sum 32
(define-fun |csa_n sum| ((state |csa_s|)) (_ BitVec 32) (|csa#9| state))
(define-fun |csa_a| ((state |csa_s|)) Bool true)
(define-fun |csa_u| ((state |csa_s|)) Bool true)
(define-fun |csa_i| ((state |csa_s|)) Bool true)
(define-fun |csa_h| ((state |csa_s|)) Bool true)
(define-fun |csa_t| ((state |csa_s|) (next_state |csa_s|)) Bool true) ; end of module csa
; yosys-smt2-module csa_formal
(declare-sort |csa_formal_s| 0)
(declare-fun |csa_formal_is| (|csa_formal_s|) Bool)
(declare-fun |csa_formal#0| (|csa_formal_s|) (_ BitVec 32)) ; \a
; yosys-smt2-input a 32
; yosys-smt2-wire a 32
; yosys-smt2-witness {"offset": 0, "path": ["\\a"], "smtname": "a", "smtoffset": 0, "type": "input", "width": 32}
(define-fun |csa_formal_n a| ((state |csa_formal_s|)) (_ BitVec 32) (|csa_formal#0| state))
(declare-fun |csa_formal#1| (|csa_formal_s|) (_ BitVec 32)) ; \b
; yosys-smt2-input b 32
; yosys-smt2-wire b 32
; yosys-smt2-witness {"offset": 0, "path": ["\\b"], "smtname": "b", "smtoffset": 0, "type": "input", "width": 32}
(define-fun |csa_formal_n b| ((state |csa_formal_s|)) (_ BitVec 32) (|csa_formal#1| state))
(declare-fun |csa_formal#2| (|csa_formal_s|) (_ BitVec 32)) ; \c
; yosys-smt2-input c 32
; yosys-smt2-wire c 32
; yosys-smt2-witness {"offset": 0, "path": ["\\c"], "smtname": "c", "smtoffset": 0, "type": "input", "width": 32}
(define-fun |csa_formal_n c| ((state |csa_formal_s|)) (_ BitVec 32) (|csa_formal#2| state))
; yosys-smt2-cell csa dut
; yosys-smt2-witness {"path": ["\\dut"], "smtname": "dut", "type": "cell"}
(declare-fun |csa_formal#3| (|csa_formal_s|) (_ BitVec 32)) ; \carry
(declare-fun |csa_formal#4| (|csa_formal_s|) (_ BitVec 32)) ; \sum
(declare-fun |csa_formal_h dut| (|csa_formal_s|) |csa_s|)
; yosys-smt2-output carry 32
; yosys-smt2-wire carry 32
(define-fun |csa_formal_n carry| ((state |csa_formal_s|)) (_ BitVec 32) (|csa_formal#3| state))
; yosys-smt2-output sum 32
; yosys-smt2-wire sum 32
(define-fun |csa_formal_n sum| ((state |csa_formal_s|)) (_ BitVec 32) (|csa_formal#4| state))
(define-fun |csa_formal#5| ((state |csa_formal_s|)) (_ BitVec 32) (bvadd (|csa_formal#0| state) (|csa_formal#1| state))) ; $add$csa_formal.sv:18$3_Y
(define-fun |csa_formal#6| ((state |csa_formal_s|)) (_ BitVec 32) (bvadd (|csa_formal#5| state) (|csa_formal#2| state))) ; $add$csa_formal.sv:18$4_Y
(define-fun |csa_formal#7| ((state |csa_formal_s|)) (_ BitVec 32) (bvadd (concat ((_ extract 30 0) (|csa_formal#3| state)) #b0) (|csa_formal#4| state))) ; $add$csa_formal.sv:18$6_Y
(define-fun |csa_formal#8| ((state |csa_formal_s|)) Bool (= (|csa_formal#6| state) (|csa_formal#7| state))) ; $eq$csa_formal.sv:18$7_Y
; yosys-smt2-assert 0 _witness_.check_assert_csa_formal_sv_18_2 csa_formal.sv:18.5-18.44
(define-fun |csa_formal_a 0| ((state |csa_formal_s|)) Bool (or (|csa_formal#8| state) (not true))) ; _witness_.check_assert_csa_formal_sv_18_2
(define-fun |csa_formal_a| ((state |csa_formal_s|)) Bool (and
  (|csa_formal_a 0| state)
  (|csa_a| (|csa_formal_h dut| state))
))
(define-fun |csa_formal_u| ((state |csa_formal_s|)) Bool 
  (|csa_u| (|csa_formal_h dut| state))
)
(define-fun |csa_formal_i| ((state |csa_formal_s|)) Bool 
  (|csa_i| (|csa_formal_h dut| state))
)
(define-fun |csa_formal_h| ((state |csa_formal_s|)) Bool (and
  (= (|csa_formal_is| state) (|csa_is| (|csa_formal_h dut| state)))
  (= (|csa_formal#0| state) (|csa_n a| (|csa_formal_h dut| state))) ; csa.a
  (= (|csa_formal#1| state) (|csa_n b| (|csa_formal_h dut| state))) ; csa.b
  (= (|csa_formal#2| state) (|csa_n c| (|csa_formal_h dut| state))) ; csa.c
  (= (|csa_formal#3| state) (|csa_n carry| (|csa_formal_h dut| state))) ; csa.carry
  (= (|csa_formal#4| state) (|csa_n sum| (|csa_formal_h dut| state))) ; csa.sum
  (|csa_h| (|csa_formal_h dut| state))
))
(define-fun |csa_formal_t| ((state |csa_formal_s|) (next_state |csa_formal_s|)) Bool 
  (|csa_t| (|csa_formal_h dut| state) (|csa_formal_h dut| next_state))
) ; end of module csa_formal
; yosys-smt2-topmod csa_formal
; end of yosys output
